c 30_4_checker.cnf
c
c field = 30
c formula set type = 4_checker
c
p cnf 5 10
50 
52 
54 
56 
-48 
51 
53 
55 
57 
-49 
28 
88 
118 
148 
-178 
29 
89 
119 
149 
-179 
88 
118 
148 
178 
-28 
89 
119 
149 
179 
-29 
88 
118 
148 
178 
-208 
89 
119 
149 
179 
-209 
86 
114 
142 
170 
-198 
87 
115 
143 
171 
-199 
